
  22   10
  10   10   10   10   10   10   10   10   10   10

   0   0   0   0   0   0   0   0   0   0   0   2 2 6 
  10  10  10  10  10  10  10  10  10  10  10   1 3 
   7  10  10  10  10  10  10  10  10  10  10   1 4 
   9  10  10  10  10  10  10  10  10  10  10   1 5 
   5  10  10  10  10  10  10  10  10  10  10   1 7 
   6  10  10  10  10  10  10  10  10  10  10   1 7 
   1  10  10  10  10  10  10  10  10  10  10   1 8 
   4  10  10  10  10  10  10  10  10  10  10   1 9 
   4  10  10  10  10  10  10  10  10  10  10   1 10 
   1  10  10  10  10  10  10  10  10  10  10   2 14 11 
   5  10  10  10  10  10  10  10  10  10  10   1 12 
   3  10  10  10  10  10  10  10  10  10  10   1 13 
   3  10  10  10  10  10  10  10  10  10  10   1 15 
   3  10  10  10  10  10  10  10  10  10  10   1 15 
   3  10  10  10  10  10  10  10  10  10  10   1 16 
   2  10  10  10  10  10  10  10  10  10  10   1 17 
   8  10  10  10  10  10  10  10  10  10  10   1 18 
   7  10  10  10  10  10  10  10  10  10  10   1 19 
   9  10  10  10  10  10  10  10  10  10  10   1 20 
   1  10  10  10  10  10  10  10  10  10  10   1 21 
  10  10  10  10  10  10  10  10  10  10  10   1 22
   0   0   0   0   0   0   0   0   0   0   0   0 
